Route #1: 32 58 40 8 65 33
Route #2: 24 36 21 4 60 15 3 29 39 14 27
Route #3: 42 5 9 12 49
Route #4: 30 63 46 26 10 2 6
Route #5: 50 47 16 62 48 37 61
Route #6: 1 7 44 64 59 25 28
Route #7: 41 17 55 11 57 38 35 19
Route #8: 45 31 56 13 43 22 34 51
Route #9: 20 53 23 18 54 52
Cost 1322
Time 0.100161
